1417113174439868275014,10,1,2,04,2,1,2,07,8,1,2,03,6,1,2,04,12,1,2,013,12,1,2,06,7,1,2,014,2,1,2,04,12,1,2,04,8,1,2,013,1,1,2,013,14,1,2,01,4,1,2,015,8,1,2,06,11,1,2,08,15,1,2,03,1,1,2,06,15,1,2,012,9,1,2,02,13,1,2,014,4,1,2,012,5,1,2,05,3,1,2,02,11,1,2,015,13,1,2,06,13,1,2,05,15,1,2,08,2,1,2,09,15,1,2,02,1,1,2,08,14,1,2,02,9,1,2,06,14,1,2,04,12,1,2,011,4,1,2,01,2,1,2,013,8,1,2,012,13,1,2,013,13,1,2,013,11,1,2,02,9,1,2,014,13,1,2,015,12,1,2,07,9,1,2,011,8,1,2,015,5,1,2,02,9,1,2,06,4,1,2,09,4,1,2,07,10,1,2,0